c Graph Colouring to DIMACS
p cnf 380 3410
10 9 8 7 6 5 4 3 2 1 0
-1 -2 0
-1 -3 0
-1 -4 0
-1 -5 0
-1 -6 0
-1 -7 0
-1 -8 0
-1 -9 0
-1 -10 0
-2 -3 0
-2 -4 0
-2 -5 0
-2 -6 0
-2 -7 0
-2 -8 0
-2 -9 0
-2 -10 0
-3 -4 0
-3 -5 0
-3 -6 0
-3 -7 0
-3 -8 0
-3 -9 0
-3 -10 0
-4 -5 0
-4 -6 0
-4 -7 0
-4 -8 0
-4 -9 0
-4 -10 0
-5 -6 0
-5 -7 0
-5 -8 0
-5 -9 0
-5 -10 0
-6 -7 0
-6 -8 0
-6 -9 0
-6 -10 0
-7 -8 0
-7 -9 0
-7 -10 0
-8 -9 0
-8 -10 0
-9 -10 0
-1 -41 0
-2 -42 0
-3 -43 0
-4 -44 0
-5 -45 0
-6 -46 0
-7 -47 0
-8 -48 0
-9 -49 0
-10 -50 0
-1 -321 0
-2 -322 0
-3 -323 0
-4 -324 0
-5 -325 0
-6 -326 0
-7 -327 0
-8 -328 0
-9 -329 0
-10 -330 0
-1 -361 0
-2 -362 0
-3 -363 0
-4 -364 0
-5 -365 0
-6 -366 0
-7 -367 0
-8 -368 0
-9 -369 0
-10 -370 0
-1 -181 0
-2 -182 0
-3 -183 0
-4 -184 0
-5 -185 0
-6 -186 0
-7 -187 0
-8 -188 0
-9 -189 0
-10 -190 0
-1 -301 0
-2 -302 0
-3 -303 0
-4 -304 0
-5 -305 0
-6 -306 0
-7 -307 0
-8 -308 0
-9 -309 0
-10 -310 0
-1 -81 0
-2 -82 0
-3 -83 0
-4 -84 0
-5 -85 0
-6 -86 0
-7 -87 0
-8 -88 0
-9 -89 0
-10 -90 0
20 19 18 17 16 15 14 13 12 11 0
-11 -12 0
-11 -13 0
-11 -14 0
-11 -15 0
-11 -16 0
-11 -17 0
-11 -18 0
-11 -19 0
-11 -20 0
-12 -13 0
-12 -14 0
-12 -15 0
-12 -16 0
-12 -17 0
-12 -18 0
-12 -19 0
-12 -20 0
-13 -14 0
-13 -15 0
-13 -16 0
-13 -17 0
-13 -18 0
-13 -19 0
-13 -20 0
-14 -15 0
-14 -16 0
-14 -17 0
-14 -18 0
-14 -19 0
-14 -20 0
-15 -16 0
-15 -17 0
-15 -18 0
-15 -19 0
-15 -20 0
-16 -17 0
-16 -18 0
-16 -19 0
-16 -20 0
-17 -18 0
-17 -19 0
-17 -20 0
-18 -19 0
-18 -20 0
-19 -20 0
-11 -41 0
-12 -42 0
-13 -43 0
-14 -44 0
-15 -45 0
-16 -46 0
-17 -47 0
-18 -48 0
-19 -49 0
-20 -50 0
-11 -271 0
-12 -272 0
-13 -273 0
-14 -274 0
-15 -275 0
-16 -276 0
-17 -277 0
-18 -278 0
-19 -279 0
-20 -280 0
-11 -201 0
-12 -202 0
-13 -203 0
-14 -204 0
-15 -205 0
-16 -206 0
-17 -207 0
-18 -208 0
-19 -209 0
-20 -210 0
-11 -271 0
-12 -272 0
-13 -273 0
-14 -274 0
-15 -275 0
-16 -276 0
-17 -277 0
-18 -278 0
-19 -279 0
-20 -280 0
30 29 28 27 26 25 24 23 22 21 0
-21 -22 0
-21 -23 0
-21 -24 0
-21 -25 0
-21 -26 0
-21 -27 0
-21 -28 0
-21 -29 0
-21 -30 0
-22 -23 0
-22 -24 0
-22 -25 0
-22 -26 0
-22 -27 0
-22 -28 0
-22 -29 0
-22 -30 0
-23 -24 0
-23 -25 0
-23 -26 0
-23 -27 0
-23 -28 0
-23 -29 0
-23 -30 0
-24 -25 0
-24 -26 0
-24 -27 0
-24 -28 0
-24 -29 0
-24 -30 0
-25 -26 0
-25 -27 0
-25 -28 0
-25 -29 0
-25 -30 0
-26 -27 0
-26 -28 0
-26 -29 0
-26 -30 0
-27 -28 0
-27 -29 0
-27 -30 0
-28 -29 0
-28 -30 0
-29 -30 0
-21 -171 0
-22 -172 0
-23 -173 0
-24 -174 0
-25 -175 0
-26 -176 0
-27 -177 0
-28 -178 0
-29 -179 0
-30 -180 0
-21 -281 0
-22 -282 0
-23 -283 0
-24 -284 0
-25 -285 0
-26 -286 0
-27 -287 0
-28 -288 0
-29 -289 0
-30 -290 0
-21 -361 0
-22 -362 0
-23 -363 0
-24 -364 0
-25 -365 0
-26 -366 0
-27 -367 0
-28 -368 0
-29 -369 0
-30 -370 0
-21 -81 0
-22 -82 0
-23 -83 0
-24 -84 0
-25 -85 0
-26 -86 0
-27 -87 0
-28 -88 0
-29 -89 0
-30 -90 0
-21 -101 0
-22 -102 0
-23 -103 0
-24 -104 0
-25 -105 0
-26 -106 0
-27 -107 0
-28 -108 0
-29 -109 0
-30 -110 0
-21 -301 0
-22 -302 0
-23 -303 0
-24 -304 0
-25 -305 0
-26 -306 0
-27 -307 0
-28 -308 0
-29 -309 0
-30 -310 0
40 39 38 37 36 35 34 33 32 31 0
-31 -32 0
-31 -33 0
-31 -34 0
-31 -35 0
-31 -36 0
-31 -37 0
-31 -38 0
-31 -39 0
-31 -40 0
-32 -33 0
-32 -34 0
-32 -35 0
-32 -36 0
-32 -37 0
-32 -38 0
-32 -39 0
-32 -40 0
-33 -34 0
-33 -35 0
-33 -36 0
-33 -37 0
-33 -38 0
-33 -39 0
-33 -40 0
-34 -35 0
-34 -36 0
-34 -37 0
-34 -38 0
-34 -39 0
-34 -40 0
-35 -36 0
-35 -37 0
-35 -38 0
-35 -39 0
-35 -40 0
-36 -37 0
-36 -38 0
-36 -39 0
-36 -40 0
-37 -38 0
-37 -39 0
-37 -40 0
-38 -39 0
-38 -40 0
-39 -40 0
-31 -251 0
-32 -252 0
-33 -253 0
-34 -254 0
-35 -255 0
-36 -256 0
-37 -257 0
-38 -258 0
-39 -259 0
-40 -260 0
-31 -241 0
-32 -242 0
-33 -243 0
-34 -244 0
-35 -245 0
-36 -246 0
-37 -247 0
-38 -248 0
-39 -249 0
-40 -250 0
-31 -1 0
-32 -2 0
-33 -3 0
-34 -4 0
-35 -5 0
-36 -6 0
-37 -7 0
-38 -8 0
-39 -9 0
-40 -10 0
-31 -281 0
-32 -282 0
-33 -283 0
-34 -284 0
-35 -285 0
-36 -286 0
-37 -287 0
-38 -288 0
-39 -289 0
-40 -290 0
-31 -261 0
-32 -262 0
-33 -263 0
-34 -264 0
-35 -265 0
-36 -266 0
-37 -267 0
-38 -268 0
-39 -269 0
-40 -270 0
-31 -331 0
-32 -332 0
-33 -333 0
-34 -334 0
-35 -335 0
-36 -336 0
-37 -337 0
-38 -338 0
-39 -339 0
-40 -340 0
-31 -181 0
-32 -182 0
-33 -183 0
-34 -184 0
-35 -185 0
-36 -186 0
-37 -187 0
-38 -188 0
-39 -189 0
-40 -190 0
50 49 48 47 46 45 44 43 42 41 0
-41 -42 0
-41 -43 0
-41 -44 0
-41 -45 0
-41 -46 0
-41 -47 0
-41 -48 0
-41 -49 0
-41 -50 0
-42 -43 0
-42 -44 0
-42 -45 0
-42 -46 0
-42 -47 0
-42 -48 0
-42 -49 0
-42 -50 0
-43 -44 0
-43 -45 0
-43 -46 0
-43 -47 0
-43 -48 0
-43 -49 0
-43 -50 0
-44 -45 0
-44 -46 0
-44 -47 0
-44 -48 0
-44 -49 0
-44 -50 0
-45 -46 0
-45 -47 0
-45 -48 0
-45 -49 0
-45 -50 0
-46 -47 0
-46 -48 0
-46 -49 0
-46 -50 0
-47 -48 0
-47 -49 0
-47 -50 0
-48 -49 0
-48 -50 0
-49 -50 0
-41 -121 0
-42 -122 0
-43 -123 0
-44 -124 0
-45 -125 0
-46 -126 0
-47 -127 0
-48 -128 0
-49 -129 0
-50 -130 0
-41 -71 0
-42 -72 0
-43 -73 0
-44 -74 0
-45 -75 0
-46 -76 0
-47 -77 0
-48 -78 0
-49 -79 0
-50 -80 0
-41 -121 0
-42 -122 0
-43 -123 0
-44 -124 0
-45 -125 0
-46 -126 0
-47 -127 0
-48 -128 0
-49 -129 0
-50 -130 0
-41 -341 0
-42 -342 0
-43 -343 0
-44 -344 0
-45 -345 0
-46 -346 0
-47 -347 0
-48 -348 0
-49 -349 0
-50 -350 0
-41 -21 0
-42 -22 0
-43 -23 0
-44 -24 0
-45 -25 0
-46 -26 0
-47 -27 0
-48 -28 0
-49 -29 0
-50 -30 0
60 59 58 57 56 55 54 53 52 51 0
-51 -52 0
-51 -53 0
-51 -54 0
-51 -55 0
-51 -56 0
-51 -57 0
-51 -58 0
-51 -59 0
-51 -60 0
-52 -53 0
-52 -54 0
-52 -55 0
-52 -56 0
-52 -57 0
-52 -58 0
-52 -59 0
-52 -60 0
-53 -54 0
-53 -55 0
-53 -56 0
-53 -57 0
-53 -58 0
-53 -59 0
-53 -60 0
-54 -55 0
-54 -56 0
-54 -57 0
-54 -58 0
-54 -59 0
-54 -60 0
-55 -56 0
-55 -57 0
-55 -58 0
-55 -59 0
-55 -60 0
-56 -57 0
-56 -58 0
-56 -59 0
-56 -60 0
-57 -58 0
-57 -59 0
-57 -60 0
-58 -59 0
-58 -60 0
-59 -60 0
-51 -11 0
-52 -12 0
-53 -13 0
-54 -14 0
-55 -15 0
-56 -16 0
-57 -17 0
-58 -18 0
-59 -19 0
-60 -20 0
-51 -231 0
-52 -232 0
-53 -233 0
-54 -234 0
-55 -235 0
-56 -236 0
-57 -237 0
-58 -238 0
-59 -239 0
-60 -240 0
-51 -201 0
-52 -202 0
-53 -203 0
-54 -204 0
-55 -205 0
-56 -206 0
-57 -207 0
-58 -208 0
-59 -209 0
-60 -210 0
-51 -211 0
-52 -212 0
-53 -213 0
-54 -214 0
-55 -215 0
-56 -216 0
-57 -217 0
-58 -218 0
-59 -219 0
-60 -220 0
-51 -341 0
-52 -342 0
-53 -343 0
-54 -344 0
-55 -345 0
-56 -346 0
-57 -347 0
-58 -348 0
-59 -349 0
-60 -350 0
-51 -1 0
-52 -2 0
-53 -3 0
-54 -4 0
-55 -5 0
-56 -6 0
-57 -7 0
-58 -8 0
-59 -9 0
-60 -10 0
-51 -71 0
-52 -72 0
-53 -73 0
-54 -74 0
-55 -75 0
-56 -76 0
-57 -77 0
-58 -78 0
-59 -79 0
-60 -80 0
70 69 68 67 66 65 64 63 62 61 0
-61 -62 0
-61 -63 0
-61 -64 0
-61 -65 0
-61 -66 0
-61 -67 0
-61 -68 0
-61 -69 0
-61 -70 0
-62 -63 0
-62 -64 0
-62 -65 0
-62 -66 0
-62 -67 0
-62 -68 0
-62 -69 0
-62 -70 0
-63 -64 0
-63 -65 0
-63 -66 0
-63 -67 0
-63 -68 0
-63 -69 0
-63 -70 0
-64 -65 0
-64 -66 0
-64 -67 0
-64 -68 0
-64 -69 0
-64 -70 0
-65 -66 0
-65 -67 0
-65 -68 0
-65 -69 0
-65 -70 0
-66 -67 0
-66 -68 0
-66 -69 0
-66 -70 0
-67 -68 0
-67 -69 0
-67 -70 0
-68 -69 0
-68 -70 0
-69 -70 0
-61 -371 0
-62 -372 0
-63 -373 0
-64 -374 0
-65 -375 0
-66 -376 0
-67 -377 0
-68 -378 0
-69 -379 0
-70 -380 0
-61 -191 0
-62 -192 0
-63 -193 0
-64 -194 0
-65 -195 0
-66 -196 0
-67 -197 0
-68 -198 0
-69 -199 0
-70 -200 0
-61 -51 0
-62 -52 0
-63 -53 0
-64 -54 0
-65 -55 0
-66 -56 0
-67 -57 0
-68 -58 0
-69 -59 0
-70 -60 0
-61 -291 0
-62 -292 0
-63 -293 0
-64 -294 0
-65 -295 0
-66 -296 0
-67 -297 0
-68 -298 0
-69 -299 0
-70 -300 0
-61 -191 0
-62 -192 0
-63 -193 0
-64 -194 0
-65 -195 0
-66 -196 0
-67 -197 0
-68 -198 0
-69 -199 0
-70 -200 0
-61 -361 0
-62 -362 0
-63 -363 0
-64 -364 0
-65 -365 0
-66 -366 0
-67 -367 0
-68 -368 0
-69 -369 0
-70 -370 0
-61 -241 0
-62 -242 0
-63 -243 0
-64 -244 0
-65 -245 0
-66 -246 0
-67 -247 0
-68 -248 0
-69 -249 0
-70 -250 0
80 79 78 77 76 75 74 73 72 71 0
-71 -72 0
-71 -73 0
-71 -74 0
-71 -75 0
-71 -76 0
-71 -77 0
-71 -78 0
-71 -79 0
-71 -80 0
-72 -73 0
-72 -74 0
-72 -75 0
-72 -76 0
-72 -77 0
-72 -78 0
-72 -79 0
-72 -80 0
-73 -74 0
-73 -75 0
-73 -76 0
-73 -77 0
-73 -78 0
-73 -79 0
-73 -80 0
-74 -75 0
-74 -76 0
-74 -77 0
-74 -78 0
-74 -79 0
-74 -80 0
-75 -76 0
-75 -77 0
-75 -78 0
-75 -79 0
-75 -80 0
-76 -77 0
-76 -78 0
-76 -79 0
-76 -80 0
-77 -78 0
-77 -79 0
-77 -80 0
-78 -79 0
-78 -80 0
-79 -80 0
-71 -361 0
-72 -362 0
-73 -363 0
-74 -364 0
-75 -365 0
-76 -366 0
-77 -367 0
-78 -368 0
-79 -369 0
-80 -370 0
-71 -371 0
-72 -372 0
-73 -373 0
-74 -374 0
-75 -375 0
-76 -376 0
-77 -377 0
-78 -378 0
-79 -379 0
-80 -380 0
90 89 88 87 86 85 84 83 82 81 0
-81 -82 0
-81 -83 0
-81 -84 0
-81 -85 0
-81 -86 0
-81 -87 0
-81 -88 0
-81 -89 0
-81 -90 0
-82 -83 0
-82 -84 0
-82 -85 0
-82 -86 0
-82 -87 0
-82 -88 0
-82 -89 0
-82 -90 0
-83 -84 0
-83 -85 0
-83 -86 0
-83 -87 0
-83 -88 0
-83 -89 0
-83 -90 0
-84 -85 0
-84 -86 0
-84 -87 0
-84 -88 0
-84 -89 0
-84 -90 0
-85 -86 0
-85 -87 0
-85 -88 0
-85 -89 0
-85 -90 0
-86 -87 0
-86 -88 0
-86 -89 0
-86 -90 0
-87 -88 0
-87 -89 0
-87 -90 0
-88 -89 0
-88 -90 0
-89 -90 0
-81 -341 0
-82 -342 0
-83 -343 0
-84 -344 0
-85 -345 0
-86 -346 0
-87 -347 0
-88 -348 0
-89 -349 0
-90 -350 0
-81 -301 0
-82 -302 0
-83 -303 0
-84 -304 0
-85 -305 0
-86 -306 0
-87 -307 0
-88 -308 0
-89 -309 0
-90 -310 0
-81 -211 0
-82 -212 0
-83 -213 0
-84 -214 0
-85 -215 0
-86 -216 0
-87 -217 0
-88 -218 0
-89 -219 0
-90 -220 0
-81 -231 0
-82 -232 0
-83 -233 0
-84 -234 0
-85 -235 0
-86 -236 0
-87 -237 0
-88 -238 0
-89 -239 0
-90 -240 0
-81 -361 0
-82 -362 0
-83 -363 0
-84 -364 0
-85 -365 0
-86 -366 0
-87 -367 0
-88 -368 0
-89 -369 0
-90 -370 0
-81 -231 0
-82 -232 0
-83 -233 0
-84 -234 0
-85 -235 0
-86 -236 0
-87 -237 0
-88 -238 0
-89 -239 0
-90 -240 0
100 99 98 97 96 95 94 93 92 91 0
-91 -92 0
-91 -93 0
-91 -94 0
-91 -95 0
-91 -96 0
-91 -97 0
-91 -98 0
-91 -99 0
-91 -100 0
-92 -93 0
-92 -94 0
-92 -95 0
-92 -96 0
-92 -97 0
-92 -98 0
-92 -99 0
-92 -100 0
-93 -94 0
-93 -95 0
-93 -96 0
-93 -97 0
-93 -98 0
-93 -99 0
-93 -100 0
-94 -95 0
-94 -96 0
-94 -97 0
-94 -98 0
-94 -99 0
-94 -100 0
-95 -96 0
-95 -97 0
-95 -98 0
-95 -99 0
-95 -100 0
-96 -97 0
-96 -98 0
-96 -99 0
-96 -100 0
-97 -98 0
-97 -99 0
-97 -100 0
-98 -99 0
-98 -100 0
-99 -100 0
-91 -161 0
-92 -162 0
-93 -163 0
-94 -164 0
-95 -165 0
-96 -166 0
-97 -167 0
-98 -168 0
-99 -169 0
-100 -170 0
-91 -121 0
-92 -122 0
-93 -123 0
-94 -124 0
-95 -125 0
-96 -126 0
-97 -127 0
-98 -128 0
-99 -129 0
-100 -130 0
-91 -221 0
-92 -222 0
-93 -223 0
-94 -224 0
-95 -225 0
-96 -226 0
-97 -227 0
-98 -228 0
-99 -229 0
-100 -230 0
-91 -151 0
-92 -152 0
-93 -153 0
-94 -154 0
-95 -155 0
-96 -156 0
-97 -157 0
-98 -158 0
-99 -159 0
-100 -160 0
-91 -181 0
-92 -182 0
-93 -183 0
-94 -184 0
-95 -185 0
-96 -186 0
-97 -187 0
-98 -188 0
-99 -189 0
-100 -190 0
-91 -141 0
-92 -142 0
-93 -143 0
-94 -144 0
-95 -145 0
-96 -146 0
-97 -147 0
-98 -148 0
-99 -149 0
-100 -150 0
110 109 108 107 106 105 104 103 102 101 0
-101 -102 0
-101 -103 0
-101 -104 0
-101 -105 0
-101 -106 0
-101 -107 0
-101 -108 0
-101 -109 0
-101 -110 0
-102 -103 0
-102 -104 0
-102 -105 0
-102 -106 0
-102 -107 0
-102 -108 0
-102 -109 0
-102 -110 0
-103 -104 0
-103 -105 0
-103 -106 0
-103 -107 0
-103 -108 0
-103 -109 0
-103 -110 0
-104 -105 0
-104 -106 0
-104 -107 0
-104 -108 0
-104 -109 0
-104 -110 0
-105 -106 0
-105 -107 0
-105 -108 0
-105 -109 0
-105 -110 0
-106 -107 0
-106 -108 0
-106 -109 0
-106 -110 0
-107 -108 0
-107 -109 0
-107 -110 0
-108 -109 0
-108 -110 0
-109 -110 0
-101 -91 0
-102 -92 0
-103 -93 0
-104 -94 0
-105 -95 0
-106 -96 0
-107 -97 0
-108 -98 0
-109 -99 0
-110 -100 0
-101 -81 0
-102 -82 0
-103 -83 0
-104 -84 0
-105 -85 0
-106 -86 0
-107 -87 0
-108 -88 0
-109 -89 0
-110 -90 0
120 119 118 117 116 115 114 113 112 111 0
-111 -112 0
-111 -113 0
-111 -114 0
-111 -115 0
-111 -116 0
-111 -117 0
-111 -118 0
-111 -119 0
-111 -120 0
-112 -113 0
-112 -114 0
-112 -115 0
-112 -116 0
-112 -117 0
-112 -118 0
-112 -119 0
-112 -120 0
-113 -114 0
-113 -115 0
-113 -116 0
-113 -117 0
-113 -118 0
-113 -119 0
-113 -120 0
-114 -115 0
-114 -116 0
-114 -117 0
-114 -118 0
-114 -119 0
-114 -120 0
-115 -116 0
-115 -117 0
-115 -118 0
-115 -119 0
-115 -120 0
-116 -117 0
-116 -118 0
-116 -119 0
-116 -120 0
-117 -118 0
-117 -119 0
-117 -120 0
-118 -119 0
-118 -120 0
-119 -120 0
-111 -291 0
-112 -292 0
-113 -293 0
-114 -294 0
-115 -295 0
-116 -296 0
-117 -297 0
-118 -298 0
-119 -299 0
-120 -300 0
-111 -371 0
-112 -372 0
-113 -373 0
-114 -374 0
-115 -375 0
-116 -376 0
-117 -377 0
-118 -378 0
-119 -379 0
-120 -380 0
-111 -181 0
-112 -182 0
-113 -183 0
-114 -184 0
-115 -185 0
-116 -186 0
-117 -187 0
-118 -188 0
-119 -189 0
-120 -190 0
-111 -231 0
-112 -232 0
-113 -233 0
-114 -234 0
-115 -235 0
-116 -236 0
-117 -237 0
-118 -238 0
-119 -239 0
-120 -240 0
130 129 128 127 126 125 124 123 122 121 0
-121 -122 0
-121 -123 0
-121 -124 0
-121 -125 0
-121 -126 0
-121 -127 0
-121 -128 0
-121 -129 0
-121 -130 0
-122 -123 0
-122 -124 0
-122 -125 0
-122 -126 0
-122 -127 0
-122 -128 0
-122 -129 0
-122 -130 0
-123 -124 0
-123 -125 0
-123 -126 0
-123 -127 0
-123 -128 0
-123 -129 0
-123 -130 0
-124 -125 0
-124 -126 0
-124 -127 0
-124 -128 0
-124 -129 0
-124 -130 0
-125 -126 0
-125 -127 0
-125 -128 0
-125 -129 0
-125 -130 0
-126 -127 0
-126 -128 0
-126 -129 0
-126 -130 0
-127 -128 0
-127 -129 0
-127 -130 0
-128 -129 0
-128 -130 0
-129 -130 0
-121 -91 0
-122 -92 0
-123 -93 0
-124 -94 0
-125 -95 0
-126 -96 0
-127 -97 0
-128 -98 0
-129 -99 0
-130 -100 0
-121 -181 0
-122 -182 0
-123 -183 0
-124 -184 0
-125 -185 0
-126 -186 0
-127 -187 0
-128 -188 0
-129 -189 0
-130 -190 0
140 139 138 137 136 135 134 133 132 131 0
-131 -132 0
-131 -133 0
-131 -134 0
-131 -135 0
-131 -136 0
-131 -137 0
-131 -138 0
-131 -139 0
-131 -140 0
-132 -133 0
-132 -134 0
-132 -135 0
-132 -136 0
-132 -137 0
-132 -138 0
-132 -139 0
-132 -140 0
-133 -134 0
-133 -135 0
-133 -136 0
-133 -137 0
-133 -138 0
-133 -139 0
-133 -140 0
-134 -135 0
-134 -136 0
-134 -137 0
-134 -138 0
-134 -139 0
-134 -140 0
-135 -136 0
-135 -137 0
-135 -138 0
-135 -139 0
-135 -140 0
-136 -137 0
-136 -138 0
-136 -139 0
-136 -140 0
-137 -138 0
-137 -139 0
-137 -140 0
-138 -139 0
-138 -140 0
-139 -140 0
-131 -121 0
-132 -122 0
-133 -123 0
-134 -124 0
-135 -125 0
-136 -126 0
-137 -127 0
-138 -128 0
-139 -129 0
-140 -130 0
-131 -101 0
-132 -102 0
-133 -103 0
-134 -104 0
-135 -105 0
-136 -106 0
-137 -107 0
-138 -108 0
-139 -109 0
-140 -110 0
150 149 148 147 146 145 144 143 142 141 0
-141 -142 0
-141 -143 0
-141 -144 0
-141 -145 0
-141 -146 0
-141 -147 0
-141 -148 0
-141 -149 0
-141 -150 0
-142 -143 0
-142 -144 0
-142 -145 0
-142 -146 0
-142 -147 0
-142 -148 0
-142 -149 0
-142 -150 0
-143 -144 0
-143 -145 0
-143 -146 0
-143 -147 0
-143 -148 0
-143 -149 0
-143 -150 0
-144 -145 0
-144 -146 0
-144 -147 0
-144 -148 0
-144 -149 0
-144 -150 0
-145 -146 0
-145 -147 0
-145 -148 0
-145 -149 0
-145 -150 0
-146 -147 0
-146 -148 0
-146 -149 0
-146 -150 0
-147 -148 0
-147 -149 0
-147 -150 0
-148 -149 0
-148 -150 0
-149 -150 0
-141 -171 0
-142 -172 0
-143 -173 0
-144 -174 0
-145 -175 0
-146 -176 0
-147 -177 0
-148 -178 0
-149 -179 0
-150 -180 0
-141 -171 0
-142 -172 0
-143 -173 0
-144 -174 0
-145 -175 0
-146 -176 0
-147 -177 0
-148 -178 0
-149 -179 0
-150 -180 0
160 159 158 157 156 155 154 153 152 151 0
-151 -152 0
-151 -153 0
-151 -154 0
-151 -155 0
-151 -156 0
-151 -157 0
-151 -158 0
-151 -159 0
-151 -160 0
-152 -153 0
-152 -154 0
-152 -155 0
-152 -156 0
-152 -157 0
-152 -158 0
-152 -159 0
-152 -160 0
-153 -154 0
-153 -155 0
-153 -156 0
-153 -157 0
-153 -158 0
-153 -159 0
-153 -160 0
-154 -155 0
-154 -156 0
-154 -157 0
-154 -158 0
-154 -159 0
-154 -160 0
-155 -156 0
-155 -157 0
-155 -158 0
-155 -159 0
-155 -160 0
-156 -157 0
-156 -158 0
-156 -159 0
-156 -160 0
-157 -158 0
-157 -159 0
-157 -160 0
-158 -159 0
-158 -160 0
-159 -160 0
-151 -31 0
-152 -32 0
-153 -33 0
-154 -34 0
-155 -35 0
-156 -36 0
-157 -37 0
-158 -38 0
-159 -39 0
-160 -40 0
-151 -101 0
-152 -102 0
-153 -103 0
-154 -104 0
-155 -105 0
-156 -106 0
-157 -107 0
-158 -108 0
-159 -109 0
-160 -110 0
-151 -41 0
-152 -42 0
-153 -43 0
-154 -44 0
-155 -45 0
-156 -46 0
-157 -47 0
-158 -48 0
-159 -49 0
-160 -50 0
-151 -331 0
-152 -332 0
-153 -333 0
-154 -334 0
-155 -335 0
-156 -336 0
-157 -337 0
-158 -338 0
-159 -339 0
-160 -340 0
-151 -291 0
-152 -292 0
-153 -293 0
-154 -294 0
-155 -295 0
-156 -296 0
-157 -297 0
-158 -298 0
-159 -299 0
-160 -300 0
170 169 168 167 166 165 164 163 162 161 0
-161 -162 0
-161 -163 0
-161 -164 0
-161 -165 0
-161 -166 0
-161 -167 0
-161 -168 0
-161 -169 0
-161 -170 0
-162 -163 0
-162 -164 0
-162 -165 0
-162 -166 0
-162 -167 0
-162 -168 0
-162 -169 0
-162 -170 0
-163 -164 0
-163 -165 0
-163 -166 0
-163 -167 0
-163 -168 0
-163 -169 0
-163 -170 0
-164 -165 0
-164 -166 0
-164 -167 0
-164 -168 0
-164 -169 0
-164 -170 0
-165 -166 0
-165 -167 0
-165 -168 0
-165 -169 0
-165 -170 0
-166 -167 0
-166 -168 0
-166 -169 0
-166 -170 0
-167 -168 0
-167 -169 0
-167 -170 0
-168 -169 0
-168 -170 0
-169 -170 0
-161 -311 0
-162 -312 0
-163 -313 0
-164 -314 0
-165 -315 0
-166 -316 0
-167 -317 0
-168 -318 0
-169 -319 0
-170 -320 0
-161 -131 0
-162 -132 0
-163 -133 0
-164 -134 0
-165 -135 0
-166 -136 0
-167 -137 0
-168 -138 0
-169 -139 0
-170 -140 0
-161 -271 0
-162 -272 0
-163 -273 0
-164 -274 0
-165 -275 0
-166 -276 0
-167 -277 0
-168 -278 0
-169 -279 0
-170 -280 0
-161 -241 0
-162 -242 0
-163 -243 0
-164 -244 0
-165 -245 0
-166 -246 0
-167 -247 0
-168 -248 0
-169 -249 0
-170 -250 0
-161 -221 0
-162 -222 0
-163 -223 0
-164 -224 0
-165 -225 0
-166 -226 0
-167 -227 0
-168 -228 0
-169 -229 0
-170 -230 0
-161 -51 0
-162 -52 0
-163 -53 0
-164 -54 0
-165 -55 0
-166 -56 0
-167 -57 0
-168 -58 0
-169 -59 0
-170 -60 0
-161 -21 0
-162 -22 0
-163 -23 0
-164 -24 0
-165 -25 0
-166 -26 0
-167 -27 0
-168 -28 0
-169 -29 0
-170 -30 0
180 179 178 177 176 175 174 173 172 171 0
-171 -172 0
-171 -173 0
-171 -174 0
-171 -175 0
-171 -176 0
-171 -177 0
-171 -178 0
-171 -179 0
-171 -180 0
-172 -173 0
-172 -174 0
-172 -175 0
-172 -176 0
-172 -177 0
-172 -178 0
-172 -179 0
-172 -180 0
-173 -174 0
-173 -175 0
-173 -176 0
-173 -177 0
-173 -178 0
-173 -179 0
-173 -180 0
-174 -175 0
-174 -176 0
-174 -177 0
-174 -178 0
-174 -179 0
-174 -180 0
-175 -176 0
-175 -177 0
-175 -178 0
-175 -179 0
-175 -180 0
-176 -177 0
-176 -178 0
-176 -179 0
-176 -180 0
-177 -178 0
-177 -179 0
-177 -180 0
-178 -179 0
-178 -180 0
-179 -180 0
-171 -351 0
-172 -352 0
-173 -353 0
-174 -354 0
-175 -355 0
-176 -356 0
-177 -357 0
-178 -358 0
-179 -359 0
-180 -360 0
-171 -151 0
-172 -152 0
-173 -153 0
-174 -154 0
-175 -155 0
-176 -156 0
-177 -157 0
-178 -158 0
-179 -159 0
-180 -160 0
190 189 188 187 186 185 184 183 182 181 0
-181 -182 0
-181 -183 0
-181 -184 0
-181 -185 0
-181 -186 0
-181 -187 0
-181 -188 0
-181 -189 0
-181 -190 0
-182 -183 0
-182 -184 0
-182 -185 0
-182 -186 0
-182 -187 0
-182 -188 0
-182 -189 0
-182 -190 0
-183 -184 0
-183 -185 0
-183 -186 0
-183 -187 0
-183 -188 0
-183 -189 0
-183 -190 0
-184 -185 0
-184 -186 0
-184 -187 0
-184 -188 0
-184 -189 0
-184 -190 0
-185 -186 0
-185 -187 0
-185 -188 0
-185 -189 0
-185 -190 0
-186 -187 0
-186 -188 0
-186 -189 0
-186 -190 0
-187 -188 0
-187 -189 0
-187 -190 0
-188 -189 0
-188 -190 0
-189 -190 0
-181 -201 0
-182 -202 0
-183 -203 0
-184 -204 0
-185 -205 0
-186 -206 0
-187 -207 0
-188 -208 0
-189 -209 0
-190 -210 0
-181 -21 0
-182 -22 0
-183 -23 0
-184 -24 0
-185 -25 0
-186 -26 0
-187 -27 0
-188 -28 0
-189 -29 0
-190 -30 0
-181 -51 0
-182 -52 0
-183 -53 0
-184 -54 0
-185 -55 0
-186 -56 0
-187 -57 0
-188 -58 0
-189 -59 0
-190 -60 0
-181 -51 0
-182 -52 0
-183 -53 0
-184 -54 0
-185 -55 0
-186 -56 0
-187 -57 0
-188 -58 0
-189 -59 0
-190 -60 0
-181 -51 0
-182 -52 0
-183 -53 0
-184 -54 0
-185 -55 0
-186 -56 0
-187 -57 0
-188 -58 0
-189 -59 0
-190 -60 0
-181 -271 0
-182 -272 0
-183 -273 0
-184 -274 0
-185 -275 0
-186 -276 0
-187 -277 0
-188 -278 0
-189 -279 0
-190 -280 0
-181 -361 0
-182 -362 0
-183 -363 0
-184 -364 0
-185 -365 0
-186 -366 0
-187 -367 0
-188 -368 0
-189 -369 0
-190 -370 0
200 199 198 197 196 195 194 193 192 191 0
-191 -192 0
-191 -193 0
-191 -194 0
-191 -195 0
-191 -196 0
-191 -197 0
-191 -198 0
-191 -199 0
-191 -200 0
-192 -193 0
-192 -194 0
-192 -195 0
-192 -196 0
-192 -197 0
-192 -198 0
-192 -199 0
-192 -200 0
-193 -194 0
-193 -195 0
-193 -196 0
-193 -197 0
-193 -198 0
-193 -199 0
-193 -200 0
-194 -195 0
-194 -196 0
-194 -197 0
-194 -198 0
-194 -199 0
-194 -200 0
-195 -196 0
-195 -197 0
-195 -198 0
-195 -199 0
-195 -200 0
-196 -197 0
-196 -198 0
-196 -199 0
-196 -200 0
-197 -198 0
-197 -199 0
-197 -200 0
-198 -199 0
-198 -200 0
-199 -200 0
-191 -71 0
-192 -72 0
-193 -73 0
-194 -74 0
-195 -75 0
-196 -76 0
-197 -77 0
-198 -78 0
-199 -79 0
-200 -80 0
-191 -121 0
-192 -122 0
-193 -123 0
-194 -124 0
-195 -125 0
-196 -126 0
-197 -127 0
-198 -128 0
-199 -129 0
-200 -130 0
-191 -311 0
-192 -312 0
-193 -313 0
-194 -314 0
-195 -315 0
-196 -316 0
-197 -317 0
-198 -318 0
-199 -319 0
-200 -320 0
-191 -141 0
-192 -142 0
-193 -143 0
-194 -144 0
-195 -145 0
-196 -146 0
-197 -147 0
-198 -148 0
-199 -149 0
-200 -150 0
210 209 208 207 206 205 204 203 202 201 0
-201 -202 0
-201 -203 0
-201 -204 0
-201 -205 0
-201 -206 0
-201 -207 0
-201 -208 0
-201 -209 0
-201 -210 0
-202 -203 0
-202 -204 0
-202 -205 0
-202 -206 0
-202 -207 0
-202 -208 0
-202 -209 0
-202 -210 0
-203 -204 0
-203 -205 0
-203 -206 0
-203 -207 0
-203 -208 0
-203 -209 0
-203 -210 0
-204 -205 0
-204 -206 0
-204 -207 0
-204 -208 0
-204 -209 0
-204 -210 0
-205 -206 0
-205 -207 0
-205 -208 0
-205 -209 0
-205 -210 0
-206 -207 0
-206 -208 0
-206 -209 0
-206 -210 0
-207 -208 0
-207 -209 0
-207 -210 0
-208 -209 0
-208 -210 0
-209 -210 0
-201 -231 0
-202 -232 0
-203 -233 0
-204 -234 0
-205 -235 0
-206 -236 0
-207 -237 0
-208 -238 0
-209 -239 0
-210 -240 0
-201 -131 0
-202 -132 0
-203 -133 0
-204 -134 0
-205 -135 0
-206 -136 0
-207 -137 0
-208 -138 0
-209 -139 0
-210 -140 0
-201 -231 0
-202 -232 0
-203 -233 0
-204 -234 0
-205 -235 0
-206 -236 0
-207 -237 0
-208 -238 0
-209 -239 0
-210 -240 0
-201 -81 0
-202 -82 0
-203 -83 0
-204 -84 0
-205 -85 0
-206 -86 0
-207 -87 0
-208 -88 0
-209 -89 0
-210 -90 0
-201 -161 0
-202 -162 0
-203 -163 0
-204 -164 0
-205 -165 0
-206 -166 0
-207 -167 0
-208 -168 0
-209 -169 0
-210 -170 0
220 219 218 217 216 215 214 213 212 211 0
-211 -212 0
-211 -213 0
-211 -214 0
-211 -215 0
-211 -216 0
-211 -217 0
-211 -218 0
-211 -219 0
-211 -220 0
-212 -213 0
-212 -214 0
-212 -215 0
-212 -216 0
-212 -217 0
-212 -218 0
-212 -219 0
-212 -220 0
-213 -214 0
-213 -215 0
-213 -216 0
-213 -217 0
-213 -218 0
-213 -219 0
-213 -220 0
-214 -215 0
-214 -216 0
-214 -217 0
-214 -218 0
-214 -219 0
-214 -220 0
-215 -216 0
-215 -217 0
-215 -218 0
-215 -219 0
-215 -220 0
-216 -217 0
-216 -218 0
-216 -219 0
-216 -220 0
-217 -218 0
-217 -219 0
-217 -220 0
-218 -219 0
-218 -220 0
-219 -220 0
-211 -301 0
-212 -302 0
-213 -303 0
-214 -304 0
-215 -305 0
-216 -306 0
-217 -307 0
-218 -308 0
-219 -309 0
-220 -310 0
-211 -111 0
-212 -112 0
-213 -113 0
-214 -114 0
-215 -115 0
-216 -116 0
-217 -117 0
-218 -118 0
-219 -119 0
-220 -120 0
230 229 228 227 226 225 224 223 222 221 0
-221 -222 0
-221 -223 0
-221 -224 0
-221 -225 0
-221 -226 0
-221 -227 0
-221 -228 0
-221 -229 0
-221 -230 0
-222 -223 0
-222 -224 0
-222 -225 0
-222 -226 0
-222 -227 0
-222 -228 0
-222 -229 0
-222 -230 0
-223 -224 0
-223 -225 0
-223 -226 0
-223 -227 0
-223 -228 0
-223 -229 0
-223 -230 0
-224 -225 0
-224 -226 0
-224 -227 0
-224 -228 0
-224 -229 0
-224 -230 0
-225 -226 0
-225 -227 0
-225 -228 0
-225 -229 0
-225 -230 0
-226 -227 0
-226 -228 0
-226 -229 0
-226 -230 0
-227 -228 0
-227 -229 0
-227 -230 0
-228 -229 0
-228 -230 0
-229 -230 0
-221 -31 0
-222 -32 0
-223 -33 0
-224 -34 0
-225 -35 0
-226 -36 0
-227 -37 0
-228 -38 0
-229 -39 0
-230 -40 0
-221 -131 0
-222 -132 0
-223 -133 0
-224 -134 0
-225 -135 0
-226 -136 0
-227 -137 0
-228 -138 0
-229 -139 0
-230 -140 0
240 239 238 237 236 235 234 233 232 231 0
-231 -232 0
-231 -233 0
-231 -234 0
-231 -235 0
-231 -236 0
-231 -237 0
-231 -238 0
-231 -239 0
-231 -240 0
-232 -233 0
-232 -234 0
-232 -235 0
-232 -236 0
-232 -237 0
-232 -238 0
-232 -239 0
-232 -240 0
-233 -234 0
-233 -235 0
-233 -236 0
-233 -237 0
-233 -238 0
-233 -239 0
-233 -240 0
-234 -235 0
-234 -236 0
-234 -237 0
-234 -238 0
-234 -239 0
-234 -240 0
-235 -236 0
-235 -237 0
-235 -238 0
-235 -239 0
-235 -240 0
-236 -237 0
-236 -238 0
-236 -239 0
-236 -240 0
-237 -238 0
-237 -239 0
-237 -240 0
-238 -239 0
-238 -240 0
-239 -240 0
-231 -321 0
-232 -322 0
-233 -323 0
-234 -324 0
-235 -325 0
-236 -326 0
-237 -327 0
-238 -328 0
-239 -329 0
-240 -330 0
-231 -221 0
-232 -222 0
-233 -223 0
-234 -224 0
-235 -225 0
-236 -226 0
-237 -227 0
-238 -228 0
-239 -229 0
-240 -230 0
-231 -61 0
-232 -62 0
-233 -63 0
-234 -64 0
-235 -65 0
-236 -66 0
-237 -67 0
-238 -68 0
-239 -69 0
-240 -70 0
250 249 248 247 246 245 244 243 242 241 0
-241 -242 0
-241 -243 0
-241 -244 0
-241 -245 0
-241 -246 0
-241 -247 0
-241 -248 0
-241 -249 0
-241 -250 0
-242 -243 0
-242 -244 0
-242 -245 0
-242 -246 0
-242 -247 0
-242 -248 0
-242 -249 0
-242 -250 0
-243 -244 0
-243 -245 0
-243 -246 0
-243 -247 0
-243 -248 0
-243 -249 0
-243 -250 0
-244 -245 0
-244 -246 0
-244 -247 0
-244 -248 0
-244 -249 0
-244 -250 0
-245 -246 0
-245 -247 0
-245 -248 0
-245 -249 0
-245 -250 0
-246 -247 0
-246 -248 0
-246 -249 0
-246 -250 0
-247 -248 0
-247 -249 0
-247 -250 0
-248 -249 0
-248 -250 0
-249 -250 0
-241 -331 0
-242 -332 0
-243 -333 0
-244 -334 0
-245 -335 0
-246 -336 0
-247 -337 0
-248 -338 0
-249 -339 0
-250 -340 0
-241 -201 0
-242 -202 0
-243 -203 0
-244 -204 0
-245 -205 0
-246 -206 0
-247 -207 0
-248 -208 0
-249 -209 0
-250 -210 0
-241 -11 0
-242 -12 0
-243 -13 0
-244 -14 0
-245 -15 0
-246 -16 0
-247 -17 0
-248 -18 0
-249 -19 0
-250 -20 0
-241 -41 0
-242 -42 0
-243 -43 0
-244 -44 0
-245 -45 0
-246 -46 0
-247 -47 0
-248 -48 0
-249 -49 0
-250 -50 0
260 259 258 257 256 255 254 253 252 251 0
-251 -252 0
-251 -253 0
-251 -254 0
-251 -255 0
-251 -256 0
-251 -257 0
-251 -258 0
-251 -259 0
-251 -260 0
-252 -253 0
-252 -254 0
-252 -255 0
-252 -256 0
-252 -257 0
-252 -258 0
-252 -259 0
-252 -260 0
-253 -254 0
-253 -255 0
-253 -256 0
-253 -257 0
-253 -258 0
-253 -259 0
-253 -260 0
-254 -255 0
-254 -256 0
-254 -257 0
-254 -258 0
-254 -259 0
-254 -260 0
-255 -256 0
-255 -257 0
-255 -258 0
-255 -259 0
-255 -260 0
-256 -257 0
-256 -258 0
-256 -259 0
-256 -260 0
-257 -258 0
-257 -259 0
-257 -260 0
-258 -259 0
-258 -260 0
-259 -260 0
-251 -231 0
-252 -232 0
-253 -233 0
-254 -234 0
-255 -235 0
-256 -236 0
-257 -237 0
-258 -238 0
-259 -239 0
-260 -240 0
-251 -241 0
-252 -242 0
-253 -243 0
-254 -244 0
-255 -245 0
-256 -246 0
-257 -247 0
-258 -248 0
-259 -249 0
-260 -250 0
-251 -91 0
-252 -92 0
-253 -93 0
-254 -94 0
-255 -95 0
-256 -96 0
-257 -97 0
-258 -98 0
-259 -99 0
-260 -100 0
-251 -311 0
-252 -312 0
-253 -313 0
-254 -314 0
-255 -315 0
-256 -316 0
-257 -317 0
-258 -318 0
-259 -319 0
-260 -320 0
-251 -11 0
-252 -12 0
-253 -13 0
-254 -14 0
-255 -15 0
-256 -16 0
-257 -17 0
-258 -18 0
-259 -19 0
-260 -20 0
270 269 268 267 266 265 264 263 262 261 0
-261 -262 0
-261 -263 0
-261 -264 0
-261 -265 0
-261 -266 0
-261 -267 0
-261 -268 0
-261 -269 0
-261 -270 0
-262 -263 0
-262 -264 0
-262 -265 0
-262 -266 0
-262 -267 0
-262 -268 0
-262 -269 0
-262 -270 0
-263 -264 0
-263 -265 0
-263 -266 0
-263 -267 0
-263 -268 0
-263 -269 0
-263 -270 0
-264 -265 0
-264 -266 0
-264 -267 0
-264 -268 0
-264 -269 0
-264 -270 0
-265 -266 0
-265 -267 0
-265 -268 0
-265 -269 0
-265 -270 0
-266 -267 0
-266 -268 0
-266 -269 0
-266 -270 0
-267 -268 0
-267 -269 0
-267 -270 0
-268 -269 0
-268 -270 0
-269 -270 0
-261 -211 0
-262 -212 0
-263 -213 0
-264 -214 0
-265 -215 0
-266 -216 0
-267 -217 0
-268 -218 0
-269 -219 0
-270 -220 0
280 279 278 277 276 275 274 273 272 271 0
-271 -272 0
-271 -273 0
-271 -274 0
-271 -275 0
-271 -276 0
-271 -277 0
-271 -278 0
-271 -279 0
-271 -280 0
-272 -273 0
-272 -274 0
-272 -275 0
-272 -276 0
-272 -277 0
-272 -278 0
-272 -279 0
-272 -280 0
-273 -274 0
-273 -275 0
-273 -276 0
-273 -277 0
-273 -278 0
-273 -279 0
-273 -280 0
-274 -275 0
-274 -276 0
-274 -277 0
-274 -278 0
-274 -279 0
-274 -280 0
-275 -276 0
-275 -277 0
-275 -278 0
-275 -279 0
-275 -280 0
-276 -277 0
-276 -278 0
-276 -279 0
-276 -280 0
-277 -278 0
-277 -279 0
-277 -280 0
-278 -279 0
-278 -280 0
-279 -280 0
-271 -141 0
-272 -142 0
-273 -143 0
-274 -144 0
-275 -145 0
-276 -146 0
-277 -147 0
-278 -148 0
-279 -149 0
-280 -150 0
-271 -101 0
-272 -102 0
-273 -103 0
-274 -104 0
-275 -105 0
-276 -106 0
-277 -107 0
-278 -108 0
-279 -109 0
-280 -110 0
-271 -61 0
-272 -62 0
-273 -63 0
-274 -64 0
-275 -65 0
-276 -66 0
-277 -67 0
-278 -68 0
-279 -69 0
-280 -70 0
-271 -1 0
-272 -2 0
-273 -3 0
-274 -4 0
-275 -5 0
-276 -6 0
-277 -7 0
-278 -8 0
-279 -9 0
-280 -10 0
290 289 288 287 286 285 284 283 282 281 0
-281 -282 0
-281 -283 0
-281 -284 0
-281 -285 0
-281 -286 0
-281 -287 0
-281 -288 0
-281 -289 0
-281 -290 0
-282 -283 0
-282 -284 0
-282 -285 0
-282 -286 0
-282 -287 0
-282 -288 0
-282 -289 0
-282 -290 0
-283 -284 0
-283 -285 0
-283 -286 0
-283 -287 0
-283 -288 0
-283 -289 0
-283 -290 0
-284 -285 0
-284 -286 0
-284 -287 0
-284 -288 0
-284 -289 0
-284 -290 0
-285 -286 0
-285 -287 0
-285 -288 0
-285 -289 0
-285 -290 0
-286 -287 0
-286 -288 0
-286 -289 0
-286 -290 0
-287 -288 0
-287 -289 0
-287 -290 0
-288 -289 0
-288 -290 0
-289 -290 0
-281 -341 0
-282 -342 0
-283 -343 0
-284 -344 0
-285 -345 0
-286 -346 0
-287 -347 0
-288 -348 0
-289 -349 0
-290 -350 0
-281 -241 0
-282 -242 0
-283 -243 0
-284 -244 0
-285 -245 0
-286 -246 0
-287 -247 0
-288 -248 0
-289 -249 0
-290 -250 0
-281 -181 0
-282 -182 0
-283 -183 0
-284 -184 0
-285 -185 0
-286 -186 0
-287 -187 0
-288 -188 0
-289 -189 0
-290 -190 0
-281 -111 0
-282 -112 0
-283 -113 0
-284 -114 0
-285 -115 0
-286 -116 0
-287 -117 0
-288 -118 0
-289 -119 0
-290 -120 0
-281 -131 0
-282 -132 0
-283 -133 0
-284 -134 0
-285 -135 0
-286 -136 0
-287 -137 0
-288 -138 0
-289 -139 0
-290 -140 0
-281 -261 0
-282 -262 0
-283 -263 0
-284 -264 0
-285 -265 0
-286 -266 0
-287 -267 0
-288 -268 0
-289 -269 0
-290 -270 0
-281 -221 0
-282 -222 0
-283 -223 0
-284 -224 0
-285 -225 0
-286 -226 0
-287 -227 0
-288 -228 0
-289 -229 0
-290 -230 0
300 299 298 297 296 295 294 293 292 291 0
-291 -292 0
-291 -293 0
-291 -294 0
-291 -295 0
-291 -296 0
-291 -297 0
-291 -298 0
-291 -299 0
-291 -300 0
-292 -293 0
-292 -294 0
-292 -295 0
-292 -296 0
-292 -297 0
-292 -298 0
-292 -299 0
-292 -300 0
-293 -294 0
-293 -295 0
-293 -296 0
-293 -297 0
-293 -298 0
-293 -299 0
-293 -300 0
-294 -295 0
-294 -296 0
-294 -297 0
-294 -298 0
-294 -299 0
-294 -300 0
-295 -296 0
-295 -297 0
-295 -298 0
-295 -299 0
-295 -300 0
-296 -297 0
-296 -298 0
-296 -299 0
-296 -300 0
-297 -298 0
-297 -299 0
-297 -300 0
-298 -299 0
-298 -300 0
-299 -300 0
-291 -11 0
-292 -12 0
-293 -13 0
-294 -14 0
-295 -15 0
-296 -16 0
-297 -17 0
-298 -18 0
-299 -19 0
-300 -20 0
-291 -361 0
-292 -362 0
-293 -363 0
-294 -364 0
-295 -365 0
-296 -366 0
-297 -367 0
-298 -368 0
-299 -369 0
-300 -370 0
-291 -311 0
-292 -312 0
-293 -313 0
-294 -314 0
-295 -315 0
-296 -316 0
-297 -317 0
-298 -318 0
-299 -319 0
-300 -320 0
-291 -1 0
-292 -2 0
-293 -3 0
-294 -4 0
-295 -5 0
-296 -6 0
-297 -7 0
-298 -8 0
-299 -9 0
-300 -10 0
-291 -31 0
-292 -32 0
-293 -33 0
-294 -34 0
-295 -35 0
-296 -36 0
-297 -37 0
-298 -38 0
-299 -39 0
-300 -40 0
310 309 308 307 306 305 304 303 302 301 0
-301 -302 0
-301 -303 0
-301 -304 0
-301 -305 0
-301 -306 0
-301 -307 0
-301 -308 0
-301 -309 0
-301 -310 0
-302 -303 0
-302 -304 0
-302 -305 0
-302 -306 0
-302 -307 0
-302 -308 0
-302 -309 0
-302 -310 0
-303 -304 0
-303 -305 0
-303 -306 0
-303 -307 0
-303 -308 0
-303 -309 0
-303 -310 0
-304 -305 0
-304 -306 0
-304 -307 0
-304 -308 0
-304 -309 0
-304 -310 0
-305 -306 0
-305 -307 0
-305 -308 0
-305 -309 0
-305 -310 0
-306 -307 0
-306 -308 0
-306 -309 0
-306 -310 0
-307 -308 0
-307 -309 0
-307 -310 0
-308 -309 0
-308 -310 0
-309 -310 0
-301 -291 0
-302 -292 0
-303 -293 0
-304 -294 0
-305 -295 0
-306 -296 0
-307 -297 0
-308 -298 0
-309 -299 0
-310 -300 0
-301 -221 0
-302 -222 0
-303 -223 0
-304 -224 0
-305 -225 0
-306 -226 0
-307 -227 0
-308 -228 0
-309 -229 0
-310 -230 0
-301 -41 0
-302 -42 0
-303 -43 0
-304 -44 0
-305 -45 0
-306 -46 0
-307 -47 0
-308 -48 0
-309 -49 0
-310 -50 0
320 319 318 317 316 315 314 313 312 311 0
-311 -312 0
-311 -313 0
-311 -314 0
-311 -315 0
-311 -316 0
-311 -317 0
-311 -318 0
-311 -319 0
-311 -320 0
-312 -313 0
-312 -314 0
-312 -315 0
-312 -316 0
-312 -317 0
-312 -318 0
-312 -319 0
-312 -320 0
-313 -314 0
-313 -315 0
-313 -316 0
-313 -317 0
-313 -318 0
-313 -319 0
-313 -320 0
-314 -315 0
-314 -316 0
-314 -317 0
-314 -318 0
-314 -319 0
-314 -320 0
-315 -316 0
-315 -317 0
-315 -318 0
-315 -319 0
-315 -320 0
-316 -317 0
-316 -318 0
-316 -319 0
-316 -320 0
-317 -318 0
-317 -319 0
-317 -320 0
-318 -319 0
-318 -320 0
-319 -320 0
-311 -211 0
-312 -212 0
-313 -213 0
-314 -214 0
-315 -215 0
-316 -216 0
-317 -217 0
-318 -218 0
-319 -219 0
-320 -220 0
-311 -201 0
-312 -202 0
-313 -203 0
-314 -204 0
-315 -205 0
-316 -206 0
-317 -207 0
-318 -208 0
-319 -209 0
-320 -210 0
-311 -321 0
-312 -322 0
-313 -323 0
-314 -324 0
-315 -325 0
-316 -326 0
-317 -327 0
-318 -328 0
-319 -329 0
-320 -330 0
-311 -251 0
-312 -252 0
-313 -253 0
-314 -254 0
-315 -255 0
-316 -256 0
-317 -257 0
-318 -258 0
-319 -259 0
-320 -260 0
-311 -141 0
-312 -142 0
-313 -143 0
-314 -144 0
-315 -145 0
-316 -146 0
-317 -147 0
-318 -148 0
-319 -149 0
-320 -150 0
-311 -91 0
-312 -92 0
-313 -93 0
-314 -94 0
-315 -95 0
-316 -96 0
-317 -97 0
-318 -98 0
-319 -99 0
-320 -100 0
330 329 328 327 326 325 324 323 322 321 0
-321 -322 0
-321 -323 0
-321 -324 0
-321 -325 0
-321 -326 0
-321 -327 0
-321 -328 0
-321 -329 0
-321 -330 0
-322 -323 0
-322 -324 0
-322 -325 0
-322 -326 0
-322 -327 0
-322 -328 0
-322 -329 0
-322 -330 0
-323 -324 0
-323 -325 0
-323 -326 0
-323 -327 0
-323 -328 0
-323 -329 0
-323 -330 0
-324 -325 0
-324 -326 0
-324 -327 0
-324 -328 0
-324 -329 0
-324 -330 0
-325 -326 0
-325 -327 0
-325 -328 0
-325 -329 0
-325 -330 0
-326 -327 0
-326 -328 0
-326 -329 0
-326 -330 0
-327 -328 0
-327 -329 0
-327 -330 0
-328 -329 0
-328 -330 0
-329 -330 0
-321 -141 0
-322 -142 0
-323 -143 0
-324 -144 0
-325 -145 0
-326 -146 0
-327 -147 0
-328 -148 0
-329 -149 0
-330 -150 0
-321 -41 0
-322 -42 0
-323 -43 0
-324 -44 0
-325 -45 0
-326 -46 0
-327 -47 0
-328 -48 0
-329 -49 0
-330 -50 0
-321 -41 0
-322 -42 0
-323 -43 0
-324 -44 0
-325 -45 0
-326 -46 0
-327 -47 0
-328 -48 0
-329 -49 0
-330 -50 0
-321 -41 0
-322 -42 0
-323 -43 0
-324 -44 0
-325 -45 0
-326 -46 0
-327 -47 0
-328 -48 0
-329 -49 0
-330 -50 0
-321 -341 0
-322 -342 0
-323 -343 0
-324 -344 0
-325 -345 0
-326 -346 0
-327 -347 0
-328 -348 0
-329 -349 0
-330 -350 0
340 339 338 337 336 335 334 333 332 331 0
-331 -332 0
-331 -333 0
-331 -334 0
-331 -335 0
-331 -336 0
-331 -337 0
-331 -338 0
-331 -339 0
-331 -340 0
-332 -333 0
-332 -334 0
-332 -335 0
-332 -336 0
-332 -337 0
-332 -338 0
-332 -339 0
-332 -340 0
-333 -334 0
-333 -335 0
-333 -336 0
-333 -337 0
-333 -338 0
-333 -339 0
-333 -340 0
-334 -335 0
-334 -336 0
-334 -337 0
-334 -338 0
-334 -339 0
-334 -340 0
-335 -336 0
-335 -337 0
-335 -338 0
-335 -339 0
-335 -340 0
-336 -337 0
-336 -338 0
-336 -339 0
-336 -340 0
-337 -338 0
-337 -339 0
-337 -340 0
-338 -339 0
-338 -340 0
-339 -340 0
-331 -271 0
-332 -272 0
-333 -273 0
-334 -274 0
-335 -275 0
-336 -276 0
-337 -277 0
-338 -278 0
-339 -279 0
-340 -280 0
-331 -31 0
-332 -32 0
-333 -33 0
-334 -34 0
-335 -35 0
-336 -36 0
-337 -37 0
-338 -38 0
-339 -39 0
-340 -40 0
-331 -291 0
-332 -292 0
-333 -293 0
-334 -294 0
-335 -295 0
-336 -296 0
-337 -297 0
-338 -298 0
-339 -299 0
-340 -300 0
350 349 348 347 346 345 344 343 342 341 0
-341 -342 0
-341 -343 0
-341 -344 0
-341 -345 0
-341 -346 0
-341 -347 0
-341 -348 0
-341 -349 0
-341 -350 0
-342 -343 0
-342 -344 0
-342 -345 0
-342 -346 0
-342 -347 0
-342 -348 0
-342 -349 0
-342 -350 0
-343 -344 0
-343 -345 0
-343 -346 0
-343 -347 0
-343 -348 0
-343 -349 0
-343 -350 0
-344 -345 0
-344 -346 0
-344 -347 0
-344 -348 0
-344 -349 0
-344 -350 0
-345 -346 0
-345 -347 0
-345 -348 0
-345 -349 0
-345 -350 0
-346 -347 0
-346 -348 0
-346 -349 0
-346 -350 0
-347 -348 0
-347 -349 0
-347 -350 0
-348 -349 0
-348 -350 0
-349 -350 0
-341 -91 0
-342 -92 0
-343 -93 0
-344 -94 0
-345 -95 0
-346 -96 0
-347 -97 0
-348 -98 0
-349 -99 0
-350 -100 0
-341 -291 0
-342 -292 0
-343 -293 0
-344 -294 0
-345 -295 0
-346 -296 0
-347 -297 0
-348 -298 0
-349 -299 0
-350 -300 0
360 359 358 357 356 355 354 353 352 351 0
-351 -352 0
-351 -353 0
-351 -354 0
-351 -355 0
-351 -356 0
-351 -357 0
-351 -358 0
-351 -359 0
-351 -360 0
-352 -353 0
-352 -354 0
-352 -355 0
-352 -356 0
-352 -357 0
-352 -358 0
-352 -359 0
-352 -360 0
-353 -354 0
-353 -355 0
-353 -356 0
-353 -357 0
-353 -358 0
-353 -359 0
-353 -360 0
-354 -355 0
-354 -356 0
-354 -357 0
-354 -358 0
-354 -359 0
-354 -360 0
-355 -356 0
-355 -357 0
-355 -358 0
-355 -359 0
-355 -360 0
-356 -357 0
-356 -358 0
-356 -359 0
-356 -360 0
-357 -358 0
-357 -359 0
-357 -360 0
-358 -359 0
-358 -360 0
-359 -360 0
-351 -321 0
-352 -322 0
-353 -323 0
-354 -324 0
-355 -325 0
-356 -326 0
-357 -327 0
-358 -328 0
-359 -329 0
-360 -330 0
-351 -11 0
-352 -12 0
-353 -13 0
-354 -14 0
-355 -15 0
-356 -16 0
-357 -17 0
-358 -18 0
-359 -19 0
-360 -20 0
-351 -191 0
-352 -192 0
-353 -193 0
-354 -194 0
-355 -195 0
-356 -196 0
-357 -197 0
-358 -198 0
-359 -199 0
-360 -200 0
-351 -331 0
-352 -332 0
-353 -333 0
-354 -334 0
-355 -335 0
-356 -336 0
-357 -337 0
-358 -338 0
-359 -339 0
-360 -340 0
-351 -71 0
-352 -72 0
-353 -73 0
-354 -74 0
-355 -75 0
-356 -76 0
-357 -77 0
-358 -78 0
-359 -79 0
-360 -80 0
370 369 368 367 366 365 364 363 362 361 0
-361 -362 0
-361 -363 0
-361 -364 0
-361 -365 0
-361 -366 0
-361 -367 0
-361 -368 0
-361 -369 0
-361 -370 0
-362 -363 0
-362 -364 0
-362 -365 0
-362 -366 0
-362 -367 0
-362 -368 0
-362 -369 0
-362 -370 0
-363 -364 0
-363 -365 0
-363 -366 0
-363 -367 0
-363 -368 0
-363 -369 0
-363 -370 0
-364 -365 0
-364 -366 0
-364 -367 0
-364 -368 0
-364 -369 0
-364 -370 0
-365 -366 0
-365 -367 0
-365 -368 0
-365 -369 0
-365 -370 0
-366 -367 0
-366 -368 0
-366 -369 0
-366 -370 0
-367 -368 0
-367 -369 0
-367 -370 0
-368 -369 0
-368 -370 0
-369 -370 0
-361 -181 0
-362 -182 0
-363 -183 0
-364 -184 0
-365 -185 0
-366 -186 0
-367 -187 0
-368 -188 0
-369 -189 0
-370 -190 0
-361 -351 0
-362 -352 0
-363 -353 0
-364 -354 0
-365 -355 0
-366 -356 0
-367 -357 0
-368 -358 0
-369 -359 0
-370 -360 0
-361 -21 0
-362 -22 0
-363 -23 0
-364 -24 0
-365 -25 0
-366 -26 0
-367 -27 0
-368 -28 0
-369 -29 0
-370 -30 0
-361 -141 0
-362 -142 0
-363 -143 0
-364 -144 0
-365 -145 0
-366 -146 0
-367 -147 0
-368 -148 0
-369 -149 0
-370 -150 0
380 379 378 377 376 375 374 373 372 371 0
-371 -372 0
-371 -373 0
-371 -374 0
-371 -375 0
-371 -376 0
-371 -377 0
-371 -378 0
-371 -379 0
-371 -380 0
-372 -373 0
-372 -374 0
-372 -375 0
-372 -376 0
-372 -377 0
-372 -378 0
-372 -379 0
-372 -380 0
-373 -374 0
-373 -375 0
-373 -376 0
-373 -377 0
-373 -378 0
-373 -379 0
-373 -380 0
-374 -375 0
-374 -376 0
-374 -377 0
-374 -378 0
-374 -379 0
-374 -380 0
-375 -376 0
-375 -377 0
-375 -378 0
-375 -379 0
-375 -380 0
-376 -377 0
-376 -378 0
-376 -379 0
-376 -380 0
-377 -378 0
-377 -379 0
-377 -380 0
-378 -379 0
-378 -380 0
-379 -380 0
-371 -1 0
-372 -2 0
-373 -3 0
-374 -4 0
-375 -5 0
-376 -6 0
-377 -7 0
-378 -8 0
-379 -9 0
-380 -10 0
-371 -361 0
-372 -362 0
-373 -363 0
-374 -364 0
-375 -365 0
-376 -366 0
-377 -367 0
-378 -368 0
-379 -369 0
-380 -370 0
-371 -211 0
-372 -212 0
-373 -213 0
-374 -214 0
-375 -215 0
-376 -216 0
-377 -217 0
-378 -218 0
-379 -219 0
-380 -220 0
-371 -241 0
-372 -242 0
-373 -243 0
-374 -244 0
-375 -245 0
-376 -246 0
-377 -247 0
-378 -248 0
-379 -249 0
-380 -250 0
-371 -291 0
-372 -292 0
-373 -293 0
-374 -294 0
-375 -295 0
-376 -296 0
-377 -297 0
-378 -298 0
-379 -299 0
-380 -300 0
-371 -51 0
-372 -52 0
-373 -53 0
-374 -54 0
-375 -55 0
-376 -56 0
-377 -57 0
-378 -58 0
-379 -59 0
-380 -60 0
-371 -101 0
-372 -102 0
-373 -103 0
-374 -104 0
-375 -105 0
-376 -106 0
-377 -107 0
-378 -108 0
-379 -109 0
-380 -110 0
1 0
42 0
